 100 

  31  10   5  22  31  20  12  26  50  39  38  47  48  20  34  14  40  43  32  11  30  24  47   9  44  13  21  17  20   4  36   3  23  50  11  36  29  28  13  30  42  29  12  45  50  27  42  25  16  15  38  13  46   8  14   3  10  14   9  40  18  49  28  31  28  42  25  42   6  36  47  14  45  36  38  24  12  23  22  39  13  16  21  41  40  39  32  24   3  24   9  48  19  19  25  31  19  45  34  15

 731

   6  17   7  10  18  19  25  19  14  23  20  23   8  24   9   2  18  10  25   2   5  23   9  11   1  13  22  12  18  13   6  21  20  14   9   1   3  13   6  14  11   9  10   5  20  24   6  12  14  21   6  16  15   5  18  11   7  25  25  18   7   1   8   9  24  13  10  10  12  10  14   5  13  12   3   1  11   2  20  21   6   3   4  22  13   2  16   8  20  17  10  17  11  16   8   1  12  23   7   5

